NAME: sim-grid-B-20
TYPE: TSP
COMMENT: Semi-regular Grid
DIMENSION: 20
EDGE_WEIGHT_TYPE: EUC_2D
NODE_COORD_SECTION
1 50 100
2 800 100
3 1150 100
4 1550 100
5 50 150
6 1150 150
7 1550 150
8 1050 500
9 1350 500
10 150 550
11 450 550
12 1050 550
13 1350 550
14 1550 550
15 50 700
16 200 700
17 750 700
18 50 750
19 1100 750
20 1450 750
EOF
